RT is False
Default write of storage_offers_DA.csv just to have a file (but constraint should be inactive)
Reading model...
...model read.
creating competitive generators file...
...competitive generators recorded.
Loading data...
.. day-ahead data read.
Compiling instance...
...instance created.
Creating Offer Mitigation (model will solve as dispatch if TRUE)...
...storage offer mitigation file created
Converting model to MPEC...
...converted
NOTE: initial MIP solve with only storage competitive to get feasible solution
Solving...

Welcome to IBM(R) ILOG(R) CPLEX(R) Interactive Optimizer 12.10.0.0
  with Simplex, Mixed Integer & Barrier Optimizers
5725-A06 5725-A29 5724-Y48 5724-Y49 5724-Y54 5724-Y55 5655-Y21
Copyright IBM Corp. 1988, 2019.  All Rights Reserved.

Type 'help' for a list of available commands.
Type 'help' followed by a command name for more
information on commands.

CPLEX> Logfile 'cplex.log' closed.
Logfile 'C:\Users\wenmi\Desktop\competitiveMPEC\logs\tmp396k010b.cplex.log' open.
CPLEX> New value for parallel optimization mode: -1
CPLEX> New value for mixed integer optimality gap tolerance: 0.0001
CPLEX> New value for feasibility tolerance: 1e-09
CPLEX> New value for deterministic time limit in ticks: 200000
CPLEX> Problem 'C:\Users\wenmi\Desktop\competitiveMPEC\logs\tmpsant_g7g.pyomo.lp' read.
Read time = 0.16 sec. (14.65 ticks)
CPLEX> Problem name         : C:\Users\wenmi\Desktop\competitiveMPEC\logs\tmpsant_g7g.pyomo.lp
Objective sense      : Maximize
Variables            :   53805  [Nneg: 1,  Box: 22000,  Free: 4464,
                                 Binary: 27340]
Objective nonzeros   :    8995
Linear constraints   :  123205  [Less: 41346,  Greater: 59096,  Equal: 22763]
  Nonzeros           :  299830
  RHS nonzeros       :   67600

Variables            : Min LB: -5000.000        Max UB: 1000000.       
Objective nonzeros   : Min   : 0.1000000        Max   : 2500.000       
Linear constraints   :
  Nonzeros           : Min   : 0.1000000        Max   : 1000000.       
  RHS nonzeros       : Min   : 0.1000000        Max   : 1000000.       
CPLEX> Version identifier: 12.10.0.0 | 2019-11-26 | 843d4de2ae
CPXPARAM_Parallel                                -1
CPXPARAM_Simplex_Tolerances_Feasibility          1.0000000000000001e-09
CPXPARAM_DetTimeLimit                            200000
Tried aggregator 3 times.
MIP Presolve eliminated 88813 rows and 19213 columns.
MIP Presolve added 3337 rows and 0 columns.
MIP Presolve modified 26007 coefficients.
Aggregator did 12960 substitutions.
Reduced MIP has 24769 rows, 21050 columns, and 75066 nonzeros.
Reduced MIP has 8315 binaries, 0 generals, 0 SOSs, and 0 indicators.
Presolve time = 0.22 sec. (187.81 ticks)
Probing fixed 376 vars, tightened 3977 bounds.
Probing time = 0.03 sec. (17.84 ticks)
Tried aggregator 2 times.
Detecting symmetries...
MIP Presolve eliminated 849 rows and 755 columns.
MIP Presolve modified 2990 coefficients.
Aggregator did 36 substitutions.
Reduced MIP has 23884 rows, 20259 columns, and 72500 nonzeros.
Reduced MIP has 7938 binaries, 0 generals, 0 SOSs, and 0 indicators.
Presolve time = 0.06 sec. (93.98 ticks)
Probing fixed 0 vars, tightened 239 bounds.
Probing time = 0.09 sec. (22.18 ticks)
Clique table members: 44011.
MIP emphasis: balance optimality and feasibility.
MIP search method: dynamic search.
Parallel mode: opportunistic, using up to 16 threads.
Root relaxation solution time = 0.34 sec. (619.63 ticks)

        Nodes                                         Cuts/
   Node  Left     Objective  IInf  Best Integer    Best Bound    ItCnt     Gap

      0     0     3154.2590    94                   3154.2590     5640         
      0     0     3154.2590    94                    Cuts: 13     5650         
      0     0     3154.2590    94                   Covers: 1     5652         
      0     0     3154.2590    94                    Cuts: 10     5656         
*     0+    0                         3153.9025     3154.2590             0.01%

Cover cuts applied:  2
Flow cuts applied:  9
Mixed integer rounding cuts applied:  2
Gomory fractional cuts applied:  4

Root node processing (before b&c):
  Real time             =    4.05 sec. (3576.54 ticks)
Parallel b&c, 16 threads:
  Real time             =    0.00 sec. (0.00 ticks)
  Sync time (average)   =    0.00 sec.
  Wait time (average)   =    0.00 sec.
                          ------------
Total (root+branch&cut) =    4.05 sec. (3576.54 ticks)

Solution pool: 1 solution saved.

MIP - Integer optimal, tolerance (0.0001/1e-06):  Objective =  3.1539024808e+03
Current MIP best bound =  3.1539031713e+03 (gap = 0.000690543, 0.00%)
Solution time =    4.05 sec.  Iterations = 5656  Nodes = 0 (1)
Deterministic time = 3576.70 ticks  (883.79 ticks/sec)

CPLEX> Incumbent solution written to file 'C:\Users\wenmi\Desktop\competitiveMPEC\logs\tmpf9yoen9w.cplex.sol'.
CPLEX> NOTE: no warmstart specified for MIP iteration, default behavior is true
NOTE: resolving with all competitive generators using storage-only solution to warmstart
Solving...

Welcome to IBM(R) ILOG(R) CPLEX(R) Interactive Optimizer 12.10.0.0
  with Simplex, Mixed Integer & Barrier Optimizers
5725-A06 5725-A29 5724-Y48 5724-Y49 5724-Y54 5724-Y55 5655-Y21
Copyright IBM Corp. 1988, 2019.  All Rights Reserved.

Type 'help' for a list of available commands.
Type 'help' followed by a command name for more
information on commands.

CPLEX> Logfile 'cplex.log' closed.
Logfile 'C:\Users\wenmi\Desktop\competitiveMPEC\logs\tmp9rh513ou.cplex.log' open.
CPLEX> New value for parallel optimization mode: -1
CPLEX> New value for mixed integer optimality gap tolerance: 0.0001
CPLEX> New value for feasibility tolerance: 1e-09
CPLEX> New value for deterministic time limit in ticks: 200000
CPLEX> Problem 'C:\Users\wenmi\Desktop\competitiveMPEC\logs\tmpqx_hmxpx.pyomo.lp' read.
Read time = 0.16 sec. (14.67 ticks)
CPLEX> MIP start file 'C:\Users\wenmi\Desktop\competitiveMPEC\logs\tmpaycz14il.cplex.mst' read.
CPLEX> Problem name         : C:\Users\wenmi\Desktop\competitiveMPEC\logs\tmpqx_hmxpx.pyomo.lp
Objective sense      : Maximize
Variables            :   54525  [Nneg: 1,  Box: 22720,  Free: 4464,
                                 Binary: 27340]
Objective nonzeros   :    9691
Linear constraints   :  123205  [Less: 41346,  Greater: 59096,  Equal: 22763]
  Nonzeros           :  299830
  RHS nonzeros       :   67600

Variables            : Min LB: -5000.000        Max UB: 1000000.       
Objective nonzeros   : Min   : 0.1000000        Max   : 2500.000       
Linear constraints   :
  Nonzeros           : Min   : 0.1000000        Max   : 1000000.       
  RHS nonzeros       : Min   : 0.1000000        Max   : 1000000.       
CPLEX> Version identifier: 12.10.0.0 | 2019-11-26 | 843d4de2ae
CPXPARAM_Parallel                                -1
CPXPARAM_Simplex_Tolerances_Feasibility          1.0000000000000001e-09
CPXPARAM_DetTimeLimit                            200000
Warning:  No solution found from 1 MIP starts.
Retaining values of one MIP start for possible repair.
Tried aggregator 3 times.
MIP Presolve eliminated 88813 rows and 19933 columns.
MIP Presolve added 3337 rows and 0 columns.
MIP Presolve modified 26007 coefficients.
Aggregator did 12960 substitutions.
Reduced MIP has 24769 rows, 21050 columns, and 75066 nonzeros.
Reduced MIP has 8315 binaries, 0 generals, 0 SOSs, and 0 indicators.
Presolve time = 0.19 sec. (188.18 ticks)
Probing fixed 376 vars, tightened 3977 bounds.
Probing time = 0.03 sec. (17.84 ticks)
Tried aggregator 2 times.
Detecting symmetries...
MIP Presolve eliminated 849 rows and 755 columns.
MIP Presolve modified 2990 coefficients.
Aggregator did 36 substitutions.
Reduced MIP has 23884 rows, 20259 columns, and 72500 nonzeros.
Reduced MIP has 7938 binaries, 0 generals, 0 SOSs, and 0 indicators.
Presolve time = 0.08 sec. (93.99 ticks)
Probing fixed 0 vars, tightened 239 bounds.
Probing time = 0.08 sec. (22.18 ticks)
Clique table members: 44011.
MIP emphasis: balance optimality and feasibility.
MIP search method: dynamic search.
Parallel mode: opportunistic, using up to 16 threads.
Root relaxation solution time = 0.39 sec. (648.94 ticks)

        Nodes                                         Cuts/
   Node  Left     Objective  IInf  Best Integer    Best Bound    ItCnt     Gap

      0     0    75760.2413   170                  75760.2413     5783         
      0     0    75070.1210   170                    Cuts: 74     5845         
      0     0    75045.7717   170                    Cuts: 13     5869         
      0     0    74992.7910   170                     Cuts: 6     5890         
      0     0    74992.7910   170                     Cuts: 2     5892         
      0     0    74992.7910   170                     Cuts: 2     5895         
      0     0    74992.7910   170                    Cuts: 13     5902         
Repair heuristic found nothing.
      0    19    67519.5200    47                  74294.0232     6123         
Elapsed time = 6.61 sec. (4044.25 ticks, tree = 0.02 MB, solutions = 0)
    308    73    67533.1150    36                  73978.3836     6608         
    530   442    37067.5065    23                  73978.3836     8698         
    847   390    infeasible                        73978.3836     8404         
   1137   882    53575.9945     6                  73954.0851    17140         
   1413  1066    53825.2517    38                  73954.0851    21891         
   1686   915    53575.9945     6                  73954.0851    17393         
*  1948+ 1508                        46032.8347    73954.0851            60.66%
   2199  1210    49652.4682    19    46032.8347    73954.0851    24110   60.66%
   2474  1404    33990.9682    12    46032.8347    73954.0851    26169   60.66%
   3768  1530    66316.5861    33    51590.3585    73954.0851    35703   43.35%
Elapsed time = 23.89 sec. (7145.99 ticks, tree = 9.56 MB, solutions = 3)
*  3923  1922      integral     0    53260.8336    73954.0851    40146   38.85%
   5237  2693    52601.8721     4    53260.8336    73954.0851    44170   38.85%

Performing restart 1

Repeating presolve.
Tried aggregator 3 times.
MIP Presolve eliminated 1034 rows and 844 columns.
MIP Presolve modified 10877 coefficients.
Aggregator did 172 substitutions.
Reduced MIP has 22678 rows, 19243 columns, and 64121 nonzeros.
Reduced MIP has 7516 binaries, 0 generals, 0 SOSs, and 0 indicators.
Presolve time = 0.08 sec. (70.43 ticks)
Tried aggregator 3 times.
MIP Presolve eliminated 359 rows and 292 columns.
MIP Presolve modified 1257 coefficients.
Aggregator did 20 substitutions.
Reduced MIP has 22299 rows, 18931 columns, and 63031 nonzeros.
Reduced MIP has 7370 binaries, 0 generals, 0 SOSs, and 0 indicators.
Presolve time = 0.06 sec. (56.82 ticks)
Tried aggregator 2 times.
MIP Presolve eliminated 56 rows and 56 columns.
MIP Presolve modified 441 coefficients.
Aggregator did 14 substitutions.
Reduced MIP has 22229 rows, 18861 columns, and 62821 nonzeros.
Reduced MIP has 7342 binaries, 0 generals, 0 SOSs, and 0 indicators.
Presolve time = 0.08 sec. (81.17 ticks)
Represolve time = 0.61 sec. (316.15 ticks)
   5780     0    74948.3875   140    53260.8336     Cuts: 371    63521   37.00%
   5780     0    74939.9229   140    53260.8336      Cuts: 88    63587   31.93%
   5780     0    74919.5535   140    53260.8336      Cuts: 67    63636   31.93%
   5780     0    74898.9752   140    53260.8336      Cuts: 86    63700   31.93%
   5780     0    74898.6828   140    53260.8336      Cuts: 26    63733   31.93%
   5780     0    74898.4572   140    53260.8336      Cuts: 94    63796   24.72%
   5780     8        cutoff          53260.8336    62868.3223    63913   18.04%
   6112    54    57718.5299    35    53260.8336    62868.3223    64596   18.04%
   6882    58    53417.9582    31    53260.8336    62868.3223    65002   18.04%
   7900   647        cutoff          53260.8336    56544.4492    82691    6.17%
   8882   621        cutoff          53260.8336    54405.6690    78549    2.15%
   9877   782    54164.4191    19    53260.8336    53435.9000    86581    0.33%
  10555   627        cutoff          53260.8336    53384.0779    81234    0.23%
  10751   666        cutoff          53260.8336    53384.0779    89969    0.23%
  10840   303    54164.4190    23    53260.8336    53384.0779    91651    0.23%
Elapsed time = 51.78 sec. (19974.69 ticks, tree = 1.68 MB, solutions = 4)

Cover cuts applied:  2
Implied bound cuts applied:  14
Flow cuts applied:  31
Mixed integer rounding cuts applied:  5
Gomory fractional cuts applied:  7

Root node processing (before b&c):
  Real time             =    6.14 sec. (4009.75 ticks)
Parallel b&c, 16 threads:
  Real time             =   45.72 sec. (16074.06 ticks)
  Sync time (average)   =    1.86 sec.
  Wait time (average)   =    0.04 sec.
                          ------------
Total (root+branch&cut) =   51.86 sec. (20083.81 ticks)

Solution pool: 4 solutions saved.

MIP - Integer optimal, tolerance (0.0001/1e-06):  Objective =  5.3260833578e+04
Current MIP best bound =  5.3261465814e+04 (gap = 0.632236, 0.00%)
Solution time =   51.86 sec.  Iterations = 93001  Nodes = 10853 (165)
Deterministic time = 20083.96 ticks  (387.28 ticks/sec)

CPLEX> Incumbent solution written to file 'C:\Users\wenmi\Desktop\competitiveMPEC\logs\tmpu5ude4b1.cplex.sol'.
CPLEX> Exporting results... 
